p edge 250 3094
e 0 11
e 0 19
e 0 22
e 0 30
e 0 32
e 0 41
e 0 47
e 0 64
e 0 70
e 0 78
e 0 83
e 0 119
e 0 120
e 0 149
e 0 156
e 0 159
e 0 161
e 0 171
e 0 174
e 0 179
e 0 188
e 0 215
e 0 225
e 0 229
e 0 231
e 0 246
e 1 14
e 1 17
e 1 20
e 1 33
e 1 43
e 1 48
e 1 50
e 1 57
e 1 66
e 1 68
e 1 75
e 1 111
e 1 118
e 1 130
e 1 134
e 1 150
e 1 155
e 1 163
e 1 167
e 1 169
e 1 172
e 1 181
e 1 190
e 1 203
e 1 220
e 1 224
e 1 226
e 1 229
e 1 232
e 2 8
e 2 19
e 2 20
e 2 21
e 2 28
e 2 33
e 2 46
e 2 64
e 2 69
e 2 71
e 2 92
e 2 105
e 2 147
e 2 148
e 2 150
e 2 169
e 2 181
e 2 182
e 2 196
e 2 207
e 2 210
e 2 217
e 2 224
e 2 230
e 2 235
e 3 5
e 3 12
e 3 40
e 3 43
e 3 67
e 3 77
e 3 80
e 3 91
e 3 93
e 3 101
e 3 104
e 3 106
e 3 127
e 3 135
e 3 138
e 3 148
e 3 151
e 3 172
e 3 176
e 3 179
e 3 199
e 3 241
e 4 6
e 4 13
e 4 15
e 4 22
e 4 23
e 4 28
e 4 29
e 4 45
e 4 68
e 4 91
e 4 94
e 4 159
e 4 182
e 4 185
e 4 190
e 4 193
e 4 206
e 4 211
e 4 212
e 4 220
e 5 8
e 5 17
e 5 34
e 5 45
e 5 47
e 5 58
e 5 67
e 5 76
e 5 81
e 5 87
e 5 93
e 5 108
e 5 113
e 5 123
e 5 142
e 5 179
e 5 224
e 5 233
e 5 234
e 6 29
e 6 32
e 6 37
e 6 38
e 6 40
e 6 48
e 6 53
e 6 65
e 6 77
e 6 92
e 6 95
e 6 99
e 6 102
e 6 106
e 6 116
e 6 119
e 6 138
e 6 139
e 6 144
e 6 148
e 6 152
e 6 163
e 6 166
e 6 232
e 6 238
e 6 243
e 6 244
e 7 25
e 7 30
e 7 31
e 7 33
e 7 52
e 7 68
e 7 83
e 7 88
e 7 90
e 7 112
e 7 115
e 7 134
e 7 145
e 7 146
e 7 164
e 7 204
e 8 33
e 8 48
e 8 65
e 8 93
e 8 104
e 8 105
e 8 106
e 8 111
e 8 117
e 8 123
e 8 127
e 8 135
e 8 142
e 8 149
e 8 167
e 8 177
e 8 180
e 8 181
e 8 186
e 8 187
e 8 193
e 8 197
e 8 201
e 8 208
e 8 214
e 8 217
e 8 225
e 8 242
e 9 13
e 9 18
e 9 26
e 9 40
e 9 47
e 9 83
e 9 97
e 9 117
e 9 134
e 9 147
e 9 188
e 9 212
e 9 217
e 9 220
e 9 223
e 9 225
e 9 237
e 10 31
e 10 52
e 10 61
e 10 62
e 10 65
e 10 72
e 10 78
e 10 81
e 10 87
e 10 99
e 10 117
e 10 124
e 10 128
e 10 131
e 10 132
e 10 150
e 10 152
e 10 154
e 10 157
e 10 163
e 10 167
e 10 168
e 10 179
e 10 183
e 10 193
e 10 225
e 10 230
e 10 236
e 10 239
e 11 15
e 11 20
e 11 38
e 11 43
e 11 52
e 11 75
e 11 87
e 11 101
e 11 117
e 11 124
e 11 154
e 11 161
e 11 163
e 11 183
e 11 189
e 11 202
e 11 212
e 11 231
e 11 246
e 12 16
e 12 35
e 12 60
e 12 78
e 12 104
e 12 110
e 12 119
e 12 132
e 12 133
e 12 134
e 12 139
e 12 141
e 12 144
e 12 170
e 12 176
e 12 182
e 12 183
e 12 192
e 12 194
e 12 217
e 12 228
e 12 246
e 13 35
e 13 39
e 13 45
e 13 46
e 13 59
e 13 62
e 13 65
e 13 71
e 13 76
e 13 80
e 13 87
e 13 90
e 13 92
e 13 105
e 13 127
e 13 129
e 13 130
e 13 131
e 13 134
e 13 144
e 13 149
e 13 158
e 13 178
e 13 180
e 13 181
e 13 182
e 13 188
e 13 204
e 13 210
e 13 241
e 13 244
e 13 245
e 14 24
e 14 31
e 14 44
e 14 45
e 14 59
e 14 67
e 14 81
e 14 86
e 14 106
e 14 108
e 14 112
e 14 125
e 14 132
e 14 135
e 14 141
e 14 156
e 14 157
e 14 194
e 14 203
e 14 208
e 14 243
e 15 23
e 15 26
e 15 53
e 15 54
e 15 59
e 15 68
e 15 82
e 15 88
e 15 97
e 15 124
e 15 130
e 15 132
e 15 142
e 15 155
e 15 164
e 15 175
e 15 177
e 15 186
e 15 211
e 15 214
e 15 231
e 15 247
e 16 18
e 16 36
e 16 66
e 16 67
e 16 101
e 16 108
e 16 118
e 16 122
e 16 123
e 16 165
e 16 172
e 16 175
e 16 178
e 16 195
e 16 213
e 16 220
e 16 222
e 16 239
e 17 26
e 17 29
e 17 31
e 17 35
e 17 62
e 17 66
e 17 67
e 17 68
e 17 75
e 17 81
e 17 91
e 17 92
e 17 115
e 17 117
e 17 128
e 17 138
e 17 139
e 17 150
e 17 160
e 17 176
e 17 217
e 17 230
e 18 23
e 18 24
e 18 26
e 18 34
e 18 39
e 18 46
e 18 51
e 18 53
e 18 60
e 18 61
e 18 65
e 18 76
e 18 82
e 18 85
e 18 97
e 18 114
e 18 126
e 18 129
e 18 131
e 18 135
e 18 153
e 18 155
e 18 161
e 18 180
e 18 192
e 18 194
e 18 205
e 18 211
e 18 216
e 18 222
e 18 229
e 18 232
e 18 236
e 18 245
e 18 248
e 19 28
e 19 29
e 19 31
e 19 36
e 19 43
e 19 44
e 19 46
e 19 51
e 19 80
e 19 108
e 19 118
e 19 119
e 19 124
e 19 131
e 19 149
e 19 153
e 19 162
e 19 170
e 19 192
e 19 197
e 19 202
e 19 204
e 19 219
e 19 226
e 19 230
e 19 236
e 19 238
e 19 242
e 19 247
e 19 249
e 20 41
e 20 47
e 20 96
e 20 107
e 20 121
e 20 125
e 20 130
e 20 149
e 20 155
e 20 156
e 20 168
e 20 171
e 20 175
e 20 192
e 20 195
e 20 197
e 20 211
e 20 223
e 20 230
e 20 231
e 20 232
e 20 238
e 20 239
e 21 31
e 21 37
e 21 48
e 21 69
e 21 70
e 21 76
e 21 101
e 21 104
e 21 107
e 21 108
e 21 111
e 21 130
e 21 133
e 21 135
e 21 144
e 21 145
e 21 148
e 21 153
e 21 154
e 21 157
e 21 173
e 21 177
e 21 178
e 21 184
e 21 185
e 21 241
e 22 37
e 22 40
e 22 45
e 22 52
e 22 54
e 22 88
e 22 106
e 22 119
e 22 127
e 22 134
e 22 138
e 22 148
e 22 160
e 22 164
e 22 166
e 22 196
e 23 35
e 23 44
e 23 75
e 23 80
e 23 83
e 23 84
e 23 105
e 23 108
e 23 111
e 23 122
e 23 147
e 23 148
e 23 153
e 23 169
e 23 176
e 23 183
e 23 185
e 23 191
e 23 194
e 23 207
e 23 210
e 23 212
e 23 216
e 23 229
e 23 248
e 24 25
e 24 27
e 24 32
e 24 81
e 24 89
e 24 90
e 24 92
e 24 99
e 24 117
e 24 118
e 24 145
e 24 161
e 24 194
e 24 243
e 25 61
e 25 64
e 25 67
e 25 87
e 25 102
e 25 111
e 25 116
e 25 117
e 25 131
e 25 139
e 25 144
e 25 153
e 25 154
e 25 160
e 25 190
e 25 195
e 25 202
e 25 209
e 25 224
e 25 237
e 25 248
e 26 28
e 26 46
e 26 58
e 26 61
e 26 71
e 26 82
e 26 116
e 26 119
e 26 138
e 26 141
e 26 180
e 26 193
e 26 204
e 26 210
e 26 224
e 26 226
e 26 234
e 26 237
e 26 242
e 27 41
e 27 42
e 27 50
e 27 53
e 27 66
e 27 72
e 27 73
e 27 74
e 27 89
e 27 97
e 27 105
e 27 109
e 27 110
e 27 113
e 27 114
e 27 123
e 27 127
e 27 139
e 27 159
e 27 161
e 27 180
e 27 187
e 27 191
e 27 196
e 27 197
e 27 202
e 27 227
e 28 55
e 28 61
e 28 70
e 28 84
e 28 93
e 28 96
e 28 99
e 28 116
e 28 123
e 28 134
e 28 137
e 28 143
e 28 149
e 28 151
e 28 160
e 28 162
e 28 166
e 28 169
e 28 174
e 28 175
e 28 185
e 28 199
e 28 200
e 28 205
e 28 206
e 28 224
e 28 239
e 29 60
e 29 68
e 29 70
e 29 71
e 29 102
e 29 137
e 29 166
e 29 176
e 29 202
e 29 206
e 29 219
e 29 237
e 29 238
e 29 240
e 29 241
e 30 53
e 30 96
e 30 107
e 30 108
e 30 137
e 30 150
e 30 160
e 30 184
e 30 185
e 30 189
e 30 194
e 30 199
e 30 202
e 30 205
e 30 211
e 30 220
e 30 226
e 30 237
e 31 50
e 31 54
e 31 59
e 31 70
e 31 82
e 31 85
e 31 94
e 31 107
e 31 111
e 31 115
e 31 122
e 31 132
e 31 134
e 31 147
e 31 152
e 31 173
e 31 174
e 31 175
e 31 178
e 31 180
e 31 190
e 31 208
e 32 35
e 32 36
e 32 41
e 32 53
e 32 55
e 32 79
e 32 80
e 32 81
e 32 83
e 32 91
e 32 95
e 32 111
e 32 118
e 32 156
e 32 190
e 32 201
e 32 208
e 32 212
e 32 233
e 32 238
e 33 58
e 33 70
e 33 71
e 33 72
e 33 80
e 33 88
e 33 94
e 33 152
e 33 153
e 33 154
e 33 161
e 33 182
e 33 186
e 33 187
e 33 238
e 33 240
e 34 54
e 34 60
e 34 80
e 34 82
e 34 97
e 34 100
e 34 106
e 34 110
e 34 115
e 34 117
e 34 124
e 34 137
e 34 152
e 34 161
e 34 162
e 34 174
e 34 184
e 34 188
e 34 189
e 34 216
e 34 217
e 34 219
e 34 245
e 35 50
e 35 60
e 35 69
e 35 82
e 35 93
e 35 103
e 35 117
e 35 121
e 35 128
e 35 133
e 35 134
e 35 140
e 35 145
e 35 168
e 35 206
e 35 211
e 35 235
e 35 239
e 36 46
e 36 48
e 36 56
e 36 66
e 36 69
e 36 91
e 36 92
e 36 110
e 36 113
e 36 123
e 36 130
e 36 131
e 36 132
e 36 144
e 36 145
e 36 147
e 36 151
e 36 156
e 36 165
e 36 166
e 36 169
e 36 185
e 36 187
e 36 191
e 36 193
e 36 195
e 36 198
e 36 204
e 36 207
e 36 218
e 36 227
e 36 231
e 36 232
e 36 235
e 36 243
e 37 52
e 37 101
e 37 104
e 37 114
e 37 128
e 37 130
e 37 133
e 37 136
e 37 154
e 37 163
e 37 170
e 37 189
e 37 209
e 37 210
e 37 227
e 37 239
e 37 245
e 38 43
e 38 51
e 38 63
e 38 73
e 38 77
e 38 84
e 38 89
e 38 105
e 38 107
e 38 125
e 38 129
e 38 153
e 38 186
e 38 188
e 38 189
e 38 202
e 38 206
e 38 219
e 38 231
e 38 234
e 38 242
e 38 246
e 38 249
e 39 55
e 39 59
e 39 61
e 39 83
e 39 85
e 39 93
e 39 105
e 39 122
e 39 125
e 39 137
e 39 144
e 39 147
e 39 158
e 39 161
e 39 162
e 39 182
e 39 185
e 39 189
e 39 193
e 39 195
e 39 212
e 39 227
e 39 229
e 39 233
e 39 241
e 40 65
e 40 71
e 40 73
e 40 82
e 40 87
e 40 96
e 40 110
e 40 133
e 40 160
e 40 193
e 40 198
e 40 200
e 40 208
e 40 218
e 40 222
e 40 224
e 40 228
e 40 229
e 40 235
e 40 236
e 40 244
e 40 247
e 41 47
e 41 52
e 41 56
e 41 68
e 41 138
e 41 153
e 41 156
e 41 162
e 41 179
e 41 183
e 41 199
e 41 210
e 41 224
e 41 229
e 41 232
e 41 238
e 42 48
e 42 50
e 42 55
e 42 75
e 42 77
e 42 86
e 42 90
e 42 98
e 42 100
e 42 105
e 42 113
e 42 115
e 42 121
e 42 128
e 42 130
e 42 154
e 42 162
e 42 164
e 42 179
e 42 214
e 42 230
e 43 54
e 43 78
e 43 80
e 43 81
e 43 86
e 43 97
e 43 103
e 43 112
e 43 130
e 43 135
e 43 140
e 43 165
e 43 166
e 43 178
e 43 191
e 43 192
e 43 209
e 43 246
e 43 249
e 44 82
e 44 83
e 44 94
e 44 98
e 44 101
e 44 102
e 44 104
e 44 108
e 44 118
e 44 122
e 44 133
e 44 137
e 44 138
e 44 150
e 44 167
e 44 168
e 44 192
e 44 200
e 44 202
e 44 206
e 44 217
e 44 223
e 44 224
e 44 227
e 44 242
e 44 244
e 44 246
e 45 65
e 45 81
e 45 83
e 45 90
e 45 97
e 45 101
e 45 109
e 45 112
e 45 127
e 45 136
e 45 149
e 45 160
e 45 173
e 45 175
e 45 176
e 45 177
e 45 183
e 45 191
e 45 197
e 45 206
e 45 238
e 46 55
e 46 58
e 46 63
e 46 75
e 46 90
e 46 92
e 46 96
e 46 108
e 46 134
e 46 145
e 46 162
e 46 174
e 46 187
e 46 202
e 46 211
e 46 226
e 46 232
e 47 52
e 47 60
e 47 70
e 47 88
e 47 97
e 47 103
e 47 104
e 47 112
e 47 118
e 47 124
e 47 128
e 47 136
e 47 164
e 47 171
e 47 180
e 47 183
e 47 190
e 47 197
e 47 226
e 47 239
e 48 49
e 48 51
e 48 60
e 48 65
e 48 71
e 48 72
e 48 73
e 48 80
e 48 82
e 48 99
e 48 109
e 48 130
e 48 137
e 48 143
e 48 178
e 48 190
e 48 200
e 49 52
e 49 57
e 49 81
e 49 84
e 49 89
e 49 116
e 49 120
e 49 129
e 49 138
e 49 140
e 49 150
e 49 155
e 49 157
e 49 180
e 49 193
e 49 196
e 49 206
e 49 217
e 49 218
e 49 224
e 49 238
e 49 244
e 49 247
e 50 58
e 50 73
e 50 81
e 50 86
e 50 99
e 50 100
e 50 101
e 50 108
e 50 114
e 50 118
e 50 125
e 50 144
e 50 154
e 50 163
e 50 167
e 50 177
e 50 184
e 50 187
e 50 214
e 50 219
e 50 220
e 50 229
e 51 66
e 51 68
e 51 76
e 51 83
e 51 93
e 51 101
e 51 113
e 51 135
e 51 151
e 51 152
e 51 155
e 51 165
e 51 167
e 51 170
e 51 179
e 51 182
e 51 183
e 51 192
e 51 193
e 51 197
e 51 217
e 51 221
e 51 224
e 51 240
e 51 245
e 51 246
e 52 55
e 52 73
e 52 99
e 52 101
e 52 103
e 52 127
e 52 136
e 52 137
e 52 144
e 52 147
e 52 150
e 52 156
e 52 158
e 52 161
e 52 172
e 52 173
e 52 187
e 52 205
e 52 208
e 52 213
e 52 218
e 52 243
e 53 62
e 53 82
e 53 85
e 53 87
e 53 90
e 53 94
e 53 101
e 53 103
e 53 116
e 53 134
e 53 146
e 53 160
e 53 171
e 53 173
e 53 191
e 53 198
e 53 199
e 53 210
e 53 212
e 53 217
e 53 218
e 53 221
e 53 243
e 54 56
e 54 70
e 54 74
e 54 95
e 54 97
e 54 106
e 54 120
e 54 122
e 54 143
e 54 144
e 54 157
e 54 170
e 54 176
e 54 189
e 54 205
e 54 225
e 54 233
e 54 237
e 55 62
e 55 71
e 55 97
e 55 101
e 55 110
e 55 115
e 55 128
e 55 140
e 55 145
e 55 151
e 55 154
e 55 157
e 55 158
e 55 166
e 55 168
e 55 173
e 55 177
e 55 189
e 55 206
e 55 224
e 55 243
e 55 245
e 56 69
e 56 76
e 56 80
e 56 91
e 56 106
e 56 122
e 56 123
e 56 141
e 56 143
e 56 151
e 56 161
e 56 225
e 56 247
e 57 58
e 57 61
e 57 62
e 57 63
e 57 75
e 57 86
e 57 97
e 57 100
e 57 108
e 57 124
e 57 139
e 57 140
e 57 145
e 57 156
e 57 157
e 57 198
e 57 206
e 57 207
e 57 220
e 57 238
e 57 242
e 57 249
e 58 77
e 58 94
e 58 95
e 58 107
e 58 117
e 58 120
e 58 126
e 58 135
e 58 150
e 58 170
e 58 180
e 58 188
e 58 197
e 58 207
e 58 208
e 58 220
e 58 233
e 59 72
e 59 81
e 59 83
e 59 102
e 59 103
e 59 109
e 59 118
e 59 127
e 59 128
e 59 147
e 59 159
e 59 179
e 59 184
e 59 189
e 59 195
e 59 207
e 59 225
e 60 87
e 60 113
e 60 118
e 60 120
e 60 123
e 60 140
e 60 141
e 60 150
e 60 160
e 60 176
e 60 199
e 60 207
e 60 211
e 60 224
e 60 240
e 60 249
e 61 64
e 61 65
e 61 93
e 61 94
e 61 107
e 61 114
e 61 116
e 61 125
e 61 163
e 61 166
e 61 192
e 61 193
e 61 207
e 62 68
e 62 69
e 62 77
e 62 79
e 62 97
e 62 98
e 62 108
e 62 113
e 62 119
e 62 120
e 62 137
e 62 142
e 62 169
e 62 173
e 62 175
e 62 187
e 62 204
e 62 206
e 62 247
e 63 75
e 63 76
e 63 82
e 63 87
e 63 94
e 63 99
e 63 109
e 63 132
e 63 161
e 63 171
e 63 173
e 63 174
e 63 188
e 63 192
e 63 200
e 63 218
e 63 239
e 63 246
e 64 71
e 64 78
e 64 84
e 64 89
e 64 90
e 64 91
e 64 102
e 64 107
e 64 139
e 64 143
e 64 144
e 64 148
e 64 161
e 64 165
e 64 190
e 64 192
e 64 194
e 64 212
e 64 217
e 64 221
e 64 227
e 64 242
e 64 246
e 65 66
e 65 87
e 65 97
e 65 101
e 65 107
e 65 108
e 65 116
e 65 122
e 65 139
e 65 148
e 65 151
e 65 152
e 65 163
e 65 166
e 65 176
e 65 179
e 65 199
e 65 203
e 65 216
e 65 223
e 65 232
e 65 235
e 65 248
e 66 69
e 66 77
e 66 115
e 66 119
e 66 124
e 66 133
e 66 153
e 66 159
e 66 165
e 66 174
e 66 180
e 66 186
e 66 199
e 66 203
e 66 224
e 66 231
e 66 233
e 66 234
e 66 235
e 66 236
e 66 241
e 67 71
e 67 79
e 67 90
e 67 93
e 67 101
e 67 107
e 67 117
e 67 129
e 67 166
e 67 178
e 67 189
e 67 191
e 67 192
e 67 205
e 67 208
e 67 217
e 67 223
e 67 242
e 67 244
e 68 72
e 68 93
e 68 94
e 68 95
e 68 96
e 68 97
e 68 102
e 68 116
e 68 140
e 68 154
e 68 177
e 68 183
e 68 200
e 68 203
e 68 207
e 68 219
e 69 72
e 69 76
e 69 95
e 69 102
e 69 111
e 69 139
e 69 153
e 69 160
e 69 194
e 69 196
e 69 215
e 69 240
e 69 242
e 69 246
e 70 82
e 70 107
e 70 122
e 70 127
e 70 128
e 70 136
e 70 142
e 70 145
e 70 150
e 70 158
e 70 181
e 70 185
e 70 228
e 70 229
e 70 234
e 71 85
e 71 92
e 71 93
e 71 107
e 71 114
e 71 122
e 71 126
e 71 144
e 71 158
e 71 189
e 71 225
e 71 230
e 71 238
e 71 239
e 72 75
e 72 91
e 72 94
e 72 96
e 72 104
e 72 115
e 72 117
e 72 139
e 72 157
e 72 165
e 72 187
e 72 214
e 72 222
e 72 226
e 72 235
e 73 79
e 73 81
e 73 83
e 73 92
e 73 94
e 73 127
e 73 128
e 73 131
e 73 132
e 73 173
e 73 199
e 73 217
e 73 224
e 73 236
e 73 247
e 73 248
e 74 76
e 74 78
e 74 89
e 74 99
e 74 100
e 74 106
e 74 114
e 74 122
e 74 130
e 74 139
e 74 141
e 74 150
e 74 158
e 74 160
e 74 200
e 74 201
e 74 223
e 74 224
e 74 231
e 74 233
e 74 236
e 74 238
e 74 247
e 74 249
e 75 79
e 75 107
e 75 118
e 75 130
e 75 133
e 75 146
e 75 177
e 75 179
e 75 188
e 75 195
e 75 234
e 75 243
e 75 244
e 76 86
e 76 88
e 76 96
e 76 115
e 76 128
e 76 139
e 76 141
e 76 173
e 76 186
e 76 187
e 76 195
e 76 198
e 76 206
e 76 240
e 76 243
e 77 93
e 77 99
e 77 110
e 77 119
e 77 138
e 77 148
e 77 193
e 77 197
e 77 201
e 77 204
e 77 207
e 77 213
e 78 88
e 78 92
e 78 96
e 78 104
e 78 112
e 78 129
e 78 141
e 78 144
e 78 165
e 78 167
e 78 198
e 78 221
e 78 228
e 78 231
e 78 243
e 79 93
e 79 94
e 79 105
e 79 109
e 79 132
e 79 157
e 79 161
e 79 175
e 79 191
e 79 193
e 79 194
e 79 196
e 79 200
e 79 201
e 79 202
e 79 203
e 79 214
e 79 245
e 79 249
e 80 81
e 80 87
e 80 105
e 80 117
e 80 120
e 80 130
e 80 135
e 80 156
e 80 158
e 80 171
e 80 186
e 80 202
e 80 223
e 80 230
e 80 231
e 80 232
e 80 246
e 81 85
e 81 93
e 81 103
e 81 131
e 81 136
e 81 151
e 81 174
e 81 177
e 81 193
e 81 199
e 81 211
e 81 214
e 82 89
e 82 90
e 82 94
e 82 98
e 82 111
e 82 113
e 82 127
e 82 129
e 82 131
e 82 142
e 82 159
e 82 177
e 82 193
e 82 203
e 82 206
e 82 209
e 82 213
e 82 215
e 82 218
e 82 220
e 82 224
e 82 240
e 83 94
e 83 97
e 83 113
e 83 114
e 83 124
e 83 129
e 83 167
e 83 184
e 83 198
e 83 210
e 83 232
e 84 101
e 84 127
e 84 134
e 84 142
e 84 162
e 84 180
e 84 189
e 84 195
e 84 200
e 84 209
e 84 221
e 84 222
e 84 230
e 85 86
e 85 95
e 85 101
e 85 103
e 85 113
e 85 117
e 85 145
e 85 158
e 85 175
e 85 189
e 85 201
e 85 220
e 85 221
e 85 223
e 85 227
e 86 92
e 86 98
e 86 99
e 86 100
e 86 105
e 86 115
e 86 121
e 86 123
e 86 126
e 86 143
e 86 156
e 86 187
e 86 209
e 86 221
e 86 222
e 86 228
e 86 235
e 86 247
e 87 89
e 87 108
e 87 113
e 87 121
e 87 123
e 87 135
e 87 145
e 87 148
e 87 149
e 87 151
e 87 154
e 87 163
e 87 191
e 87 197
e 87 207
e 87 221
e 87 225
e 87 228
e 87 248
e 87 249
e 88 98
e 88 130
e 88 137
e 88 155
e 88 164
e 88 171
e 88 176
e 88 187
e 88 195
e 88 199
e 88 213
e 88 239
e 88 242
e 88 247
e 89 90
e 89 99
e 89 103
e 89 109
e 89 111
e 89 134
e 89 143
e 89 147
e 89 159
e 89 162
e 89 166
e 89 172
e 89 176
e 89 198
e 89 216
e 89 228
e 89 230
e 89 237
e 90 101
e 90 103
e 90 113
e 90 148
e 90 152
e 90 154
e 90 162
e 90 168
e 90 179
e 90 181
e 90 196
e 90 199
e 90 204
e 90 215
e 90 217
e 90 225
e 90 249
e 91 93
e 91 100
e 91 113
e 91 116
e 91 126
e 91 128
e 91 132
e 91 139
e 91 156
e 91 182
e 91 192
e 91 213
e 91 215
e 91 228
e 91 232
e 91 242
e 92 95
e 92 107
e 92 114
e 92 124
e 92 126
e 92 135
e 92 140
e 92 146
e 92 149
e 92 156
e 92 160
e 92 164
e 92 173
e 92 186
e 92 187
e 92 190
e 92 224
e 92 234
e 92 240
e 93 99
e 93 108
e 93 110
e 93 132
e 93 174
e 93 175
e 93 180
e 93 186
e 93 193
e 93 206
e 93 225
e 94 119
e 94 127
e 94 134
e 94 149
e 94 150
e 94 166
e 94 171
e 94 174
e 94 183
e 94 195
e 94 199
e 94 238
e 95 96
e 95 109
e 95 123
e 95 131
e 95 135
e 95 138
e 95 146
e 95 157
e 95 159
e 95 167
e 95 183
e 95 186
e 95 201
e 95 210
e 95 230
e 95 242
e 95 247
e 96 99
e 96 104
e 96 130
e 96 134
e 96 138
e 96 140
e 96 148
e 96 166
e 96 175
e 96 180
e 96 184
e 96 208
e 96 216
e 96 224
e 96 230
e 96 232
e 96 233
e 96 234
e 96 239
e 96 245
e 96 246
e 96 248
e 97 105
e 97 106
e 97 108
e 97 112
e 97 135
e 97 139
e 97 176
e 97 182
e 97 194
e 97 203
e 97 223
e 97 240
e 98 108
e 98 136
e 98 170
e 98 218
e 98 221
e 98 229
e 98 235
e 98 236
e 98 245
e 98 248
e 99 101
e 99 118
e 99 126
e 99 130
e 99 132
e 99 135
e 99 136
e 99 149
e 99 152
e 99 155
e 99 160
e 99 163
e 99 173
e 99 174
e 99 177
e 99 179
e 99 183
e 99 196
e 99 199
e 99 201
e 99 204
e 99 212
e 99 216
e 99 221
e 100 107
e 100 108
e 100 110
e 100 153
e 100 154
e 100 168
e 100 182
e 100 185
e 100 196
e 100 202
e 100 206
e 100 223
e 100 227
e 100 240
e 100 247
e 101 108
e 101 112
e 101 116
e 101 117
e 101 119
e 101 128
e 101 132
e 101 133
e 101 138
e 101 140
e 101 155
e 101 166
e 101 173
e 101 184
e 101 191
e 101 205
e 101 227
e 101 229
e 101 248
e 102 107
e 102 117
e 102 125
e 102 141
e 102 168
e 102 172
e 102 173
e 102 190
e 102 201
e 102 206
e 102 232
e 102 245
e 103 151
e 103 186
e 103 217
e 103 224
e 103 229
e 103 231
e 103 243
e 103 246
e 104 121
e 104 138
e 104 139
e 104 143
e 104 151
e 104 167
e 104 172
e 104 181
e 104 184
e 104 193
e 104 201
e 104 206
e 104 217
e 104 223
e 104 226
e 104 231
e 104 245
e 105 138
e 105 190
e 105 197
e 105 205
e 105 210
e 105 212
e 105 224
e 105 226
e 105 234
e 106 112
e 106 113
e 106 127
e 106 131
e 106 142
e 106 158
e 106 160
e 106 163
e 106 172
e 106 175
e 106 187
e 106 191
e 106 202
e 106 213
e 106 241
e 107 124
e 107 158
e 107 178
e 107 215
e 107 220
e 107 224
e 107 225
e 107 232
e 107 234
e 108 109
e 108 118
e 108 133
e 108 162
e 108 177
e 108 179
e 108 182
e 108 185
e 108 193
e 108 202
e 108 206
e 108 207
e 108 210
e 108 219
e 108 224
e 108 225
e 108 227
e 108 228
e 108 230
e 108 231
e 108 240
e 109 122
e 109 125
e 109 133
e 109 135
e 109 151
e 109 157
e 109 170
e 109 176
e 109 188
e 109 189
e 109 198
e 109 199
e 109 221
e 109 223
e 109 227
e 109 229
e 109 243
e 109 244
e 109 246
e 110 118
e 110 121
e 110 122
e 110 133
e 110 136
e 110 137
e 110 138
e 110 142
e 110 157
e 110 185
e 110 197
e 110 216
e 110 218
e 110 220
e 110 223
e 110 230
e 110 235
e 110 245
e 110 248
e 110 249
e 111 137
e 111 164
e 111 165
e 111 207
e 111 220
e 111 222
e 111 226
e 111 229
e 111 246
e 112 122
e 112 137
e 112 139
e 112 160
e 112 170
e 112 176
e 112 178
e 112 190
e 112 194
e 112 205
e 112 209
e 112 214
e 112 215
e 112 235
e 112 238
e 113 117
e 113 126
e 113 150
e 113 172
e 113 176
e 113 179
e 113 184
e 113 198
e 113 209
e 113 219
e 113 236
e 113 242
e 114 156
e 114 169
e 114 184
e 114 187
e 114 190
e 114 194
e 114 206
e 114 209
e 114 210
e 114 214
e 114 222
e 114 229
e 114 245
e 115 125
e 115 133
e 115 155
e 115 156
e 115 161
e 115 183
e 115 184
e 115 227
e 115 241
e 115 244
e 115 246
e 115 248
e 115 249
e 116 154
e 116 156
e 116 159
e 116 160
e 116 169
e 116 177
e 116 179
e 116 191
e 116 194
e 116 199
e 116 205
e 116 212
e 116 236
e 116 237
e 116 246
e 117 123
e 117 127
e 117 161
e 117 162
e 117 168
e 117 176
e 117 228
e 117 231
e 117 236
e 117 240
e 118 132
e 118 140
e 118 150
e 118 156
e 118 183
e 118 184
e 118 238
e 118 240
e 119 129
e 119 137
e 119 139
e 119 143
e 119 153
e 119 160
e 119 171
e 119 213
e 119 214
e 119 219
e 119 226
e 119 247
e 120 143
e 120 150
e 120 160
e 120 179
e 120 184
e 120 188
e 120 191
e 120 214
e 120 229
e 120 233
e 120 248
e 121 125
e 121 143
e 121 158
e 121 177
e 121 184
e 121 207
e 121 208
e 121 209
e 121 213
e 121 231
e 121 245
e 121 247
e 122 130
e 122 163
e 122 176
e 122 184
e 122 185
e 122 188
e 122 206
e 122 220
e 122 226
e 122 227
e 123 126
e 123 151
e 123 155
e 123 158
e 123 163
e 123 164
e 123 192
e 123 213
e 123 238
e 123 243
e 123 249
e 124 130
e 124 131
e 124 134
e 124 147
e 124 174
e 124 188
e 124 197
e 124 198
e 124 212
e 124 214
e 124 225
e 124 233
e 125 128
e 125 139
e 125 143
e 125 151
e 125 162
e 125 168
e 125 172
e 125 176
e 125 182
e 125 186
e 125 191
e 125 192
e 125 211
e 125 215
e 125 230
e 126 135
e 126 141
e 126 159
e 126 168
e 126 183
e 126 184
e 126 189
e 126 192
e 126 208
e 126 234
e 127 130
e 127 147
e 127 150
e 127 152
e 127 184
e 127 187
e 127 193
e 127 221
e 127 222
e 127 226
e 127 233
e 128 130
e 128 144
e 128 146
e 128 147
e 128 152
e 128 162
e 128 183
e 128 197
e 128 206
e 128 216
e 128 222
e 128 236
e 129 131
e 129 157
e 129 158
e 129 171
e 129 173
e 129 175
e 129 183
e 129 193
e 129 206
e 129 207
e 129 213
e 129 234
e 129 237
e 129 247
e 130 166
e 130 171
e 130 188
e 130 196
e 130 197
e 130 203
e 130 205
e 130 222
e 130 228
e 130 237
e 130 249
e 131 132
e 131 175
e 131 182
e 131 202
e 131 229
e 131 238
e 131 243
e 131 247
e 132 134
e 132 137
e 132 156
e 132 201
e 132 207
e 132 217
e 132 219
e 132 222
e 132 225
e 132 232
e 133 138
e 133 142
e 133 144
e 133 148
e 133 173
e 133 185
e 133 212
e 133 219
e 133 226
e 133 241
e 133 247
e 133 249
e 134 149
e 134 157
e 134 159
e 134 165
e 134 176
e 134 178
e 134 186
e 134 188
e 134 216
e 134 222
e 135 147
e 135 149
e 135 161
e 135 178
e 135 195
e 135 197
e 135 201
e 135 221
e 135 222
e 135 240
e 135 244
e 136 150
e 136 156
e 136 166
e 136 174
e 136 189
e 136 196
e 136 209
e 136 212
e 136 219
e 136 234
e 136 238
e 136 242
e 137 140
e 137 146
e 137 147
e 137 153
e 137 157
e 137 170
e 137 173
e 137 180
e 137 188
e 137 199
e 137 202
e 137 204
e 137 218
e 137 249
e 138 140
e 138 141
e 138 149
e 138 153
e 138 161
e 138 171
e 138 180
e 138 185
e 138 189
e 138 203
e 138 216
e 138 236
e 138 243
e 139 140
e 139 144
e 139 155
e 139 163
e 139 171
e 139 178
e 139 187
e 139 189
e 139 194
e 139 206
e 139 207
e 139 215
e 139 238
e 139 242
e 139 247
e 139 248
e 140 142
e 140 147
e 140 156
e 140 170
e 140 174
e 140 176
e 140 184
e 140 200
e 140 211
e 141 149
e 141 151
e 141 154
e 141 170
e 141 178
e 141 188
e 141 193
e 141 201
e 141 205
e 141 210
e 141 214
e 141 220
e 141 221
e 141 240
e 142 148
e 142 155
e 142 159
e 142 166
e 142 168
e 142 181
e 142 186
e 142 189
e 142 203
e 142 207
e 142 220
e 142 228
e 142 229
e 142 230
e 142 231
e 143 158
e 143 176
e 143 177
e 143 180
e 143 221
e 143 224
e 143 236
e 143 238
e 143 245
e 144 165
e 144 203
e 144 217
e 144 218
e 144 221
e 144 230
e 145 146
e 145 153
e 145 176
e 145 184
e 145 191
e 145 201
e 145 213
e 145 216
e 145 222
e 145 224
e 145 235
e 145 237
e 146 148
e 146 158
e 146 167
e 146 171
e 146 182
e 146 195
e 146 236
e 146 243
e 147 152
e 147 158
e 147 167
e 147 168
e 147 192
e 147 196
e 147 211
e 147 214
e 147 220
e 147 232
e 147 233
e 148 168
e 148 183
e 148 189
e 148 197
e 148 211
e 148 212
e 148 238
e 148 249
e 149 169
e 149 173
e 149 192
e 149 197
e 149 201
e 149 209
e 149 225
e 149 237
e 150 167
e 150 172
e 150 191
e 150 201
e 150 240
e 150 245
e 151 159
e 151 175
e 151 180
e 151 184
e 151 189
e 151 199
e 151 206
e 151 221
e 151 227
e 151 228
e 151 234
e 151 238
e 151 240
e 151 244
e 152 153
e 152 157
e 152 166
e 152 173
e 152 201
e 152 204
e 152 206
e 152 223
e 152 224
e 152 226
e 152 246
e 153 161
e 153 167
e 153 194
e 153 195
e 153 198
e 153 209
e 153 211
e 153 230
e 153 239
e 154 159
e 154 166
e 154 180
e 154 184
e 154 202
e 154 212
e 154 213
e 154 233
e 154 236
e 154 237
e 155 156
e 155 159
e 155 162
e 155 166
e 155 172
e 155 181
e 155 199
e 155 205
e 155 216
e 155 218
e 155 240
e 155 241
e 155 246
e 155 247
e 155 248
e 156 157
e 156 159
e 156 168
e 156 194
e 156 204
e 156 209
e 156 223
e 156 224
e 157 159
e 157 167
e 157 170
e 157 177
e 157 179
e 157 189
e 157 194
e 157 197
e 157 202
e 157 206
e 157 213
e 157 223
e 157 227
e 157 228
e 157 237
e 158 180
e 158 183
e 158 185
e 158 191
e 158 193
e 158 194
e 158 200
e 158 208
e 158 211
e 158 241
e 159 185
e 159 189
e 159 198
e 159 214
e 159 228
e 159 231
e 159 232
e 160 161
e 160 162
e 160 163
e 160 167
e 160 168
e 160 171
e 160 180
e 160 187
e 160 191
e 160 198
e 160 237
e 161 165
e 161 175
e 161 203
e 161 216
e 161 226
e 161 234
e 161 248
e 162 166
e 162 167
e 162 192
e 162 202
e 162 205
e 162 210
e 162 219
e 162 224
e 162 232
e 163 166
e 163 171
e 163 172
e 163 175
e 163 182
e 163 183
e 163 208
e 163 215
e 163 232
e 163 241
e 163 249
e 164 191
e 164 200
e 164 208
e 164 209
e 164 216
e 164 221
e 164 222
e 164 236
e 165 174
e 165 185
e 165 186
e 165 193
e 165 195
e 165 196
e 165 203
e 165 213
e 165 230
e 165 245
e 166 171
e 166 184
e 166 190
e 166 197
e 166 199
e 166 204
e 166 233
e 166 237
e 166 239
e 166 240
e 166 245
e 167 173
e 167 192
e 167 199
e 167 211
e 167 212
e 167 228
e 167 230
e 167 235
e 168 172
e 168 176
e 168 177
e 168 178
e 168 179
e 168 185
e 168 188
e 168 223
e 168 233
e 168 238
e 168 248
e 169 173
e 169 184
e 169 230
e 169 239
e 169 241
e 170 173
e 170 198
e 170 199
e 170 204
e 170 213
e 170 224
e 170 225
e 170 245
e 170 248
e 171 192
e 171 203
e 171 222
e 171 226
e 171 242
e 171 243
e 171 249
e 172 180
e 172 182
e 172 186
e 172 192
e 172 193
e 172 206
e 172 210
e 172 214
e 172 220
e 172 222
e 172 244
e 173 178
e 173 179
e 173 210
e 173 214
e 173 227
e 173 233
e 173 246
e 174 177
e 174 184
e 174 187
e 174 189
e 174 201
e 174 216
e 174 218
e 174 225
e 174 228
e 174 234
e 174 246
e 175 176
e 175 197
e 175 224
e 176 186
e 176 187
e 176 188
e 176 191
e 176 213
e 176 214
e 176 219
e 176 227
e 176 245
e 177 185
e 177 196
e 177 218
e 177 226
e 177 234
e 178 181
e 178 191
e 178 207
e 178 240
e 179 188
e 179 216
e 179 217
e 179 218
e 179 231
e 179 237
e 180 186
e 180 204
e 180 209
e 180 217
e 180 218
e 180 229
e 180 237
e 181 201
e 181 216
e 181 221
e 181 222
e 181 224
e 181 238
e 181 247
e 181 249
e 182 197
e 182 204
e 182 210
e 182 216
e 182 221
e 182 241
e 183 187
e 183 217
e 183 228
e 183 232
e 183 235
e 183 236
e 183 241
e 184 187
e 184 189
e 184 190
e 184 204
e 184 207
e 184 214
e 184 215
e 184 223
e 184 224
e 184 230
e 184 237
e 184 241
e 184 247
e 184 248
e 185 191
e 185 193
e 185 200
e 185 208
e 185 214
e 185 217
e 185 249
e 186 187
e 186 191
e 186 211
e 186 222
e 186 233
e 186 244
e 187 207
e 187 211
e 187 226
e 187 238
e 188 190
e 188 194
e 188 200
e 188 210
e 188 225
e 189 192
e 189 193
e 189 218
e 189 225
e 190 204
e 190 249
e 191 206
e 191 218
e 191 226
e 191 235
e 192 199
e 192 225
e 192 237
e 192 240
e 192 244
e 193 197
e 193 200
e 193 204
e 193 205
e 193 224
e 193 231
e 193 245
e 194 197
e 194 200
e 194 210
e 194 211
e 194 227
e 194 240
e 194 242
e 195 196
e 195 199
e 195 209
e 195 214
e 195 217
e 195 218
e 195 222
e 195 223
e 195 239
e 196 212
e 196 213
e 196 224
e 196 226
e 196 234
e 196 238
e 196 242
e 196 243
e 196 246
e 197 201
e 197 240
e 197 244
e 198 210
e 198 219
e 198 221
e 198 227
e 198 230
e 198 235
e 199 212
e 199 214
e 199 221
e 199 222
e 199 230
e 200 205
e 200 206
e 200 212
e 200 226
e 200 231
e 200 233
e 200 244
e 200 247
e 200 249
e 201 214
e 201 220
e 201 236
e 201 245
e 202 211
e 202 240
e 202 243
e 203 209
e 203 225
e 203 228
e 203 247
e 203 248
e 204 207
e 204 211
e 204 231
e 204 240
e 205 208
e 205 234
e 206 208
e 206 212
e 206 233
e 206 243
e 207 222
e 207 223
e 207 230
e 207 233
e 207 236
e 208 209
e 208 210
e 208 213
e 209 213
e 209 234
e 209 244
e 209 248
e 210 211
e 210 236
e 210 243
e 210 244
e 211 230
e 211 235
e 211 236
e 211 242
e 211 249
e 212 213
e 212 224
e 212 243
e 212 244
e 213 215
e 213 216
e 213 230
e 213 232
e 213 234
e 213 235
e 214 232
e 214 234
e 215 230
e 216 217
e 216 223
e 216 225
e 216 238
e 216 248
e 217 240
e 217 249
e 218 233
e 218 246
e 218 249
e 219 220
e 219 226
e 219 245
e 220 226
e 220 239
e 221 229
e 221 240
e 221 243
e 222 232
e 222 233
e 222 238
e 222 239
e 223 225
e 223 228
e 224 225
e 224 246
e 226 227
e 226 229
e 226 235
e 226 246
e 227 231
e 227 237
e 227 241
e 227 243
e 227 246
e 228 229
e 229 236
e 229 246
e 231 244
e 233 240
e 233 246
e 234 235
e 234 239
e 234 242
e 234 245
e 235 246
e 236 237
e 237 242
e 238 239
e 238 243
e 240 242
e 240 246
e 242 245
e 243 245
e 243 246
e 246 249
